sat
( (x_init (- 1))
  (y_init 1)
  (z_init (- 1))
  (c_0 (- 2))
  (c_1 (- 1))
  (c_2 1)
  (c_3 (- 1))
  (c_4 0)
  (c_5 0)
  (c_6 4)
  (c_7 0)
  (c_8 (- 2))
  (c_9 (- 2))
  (c_10 0)
  (c_11 0)
  (c_12 (- 2))
  (c_13 (- 2))
  (c_14 0)
  (c_15 (- 2)) )
